5 5
1 64 2 71 3 24 0 27 4 37
4 94 3 91 0 39 1 63 2 79
0 26 3 65 2 4 1 29 4 1
0 50 1 86 3 11 2 74 4 59
0 62 4 81 2 36 1 56 3 90
-1
0 2 5
0 1 4 5
0 1 2 3 5
0 4 5
0 1 3 5
-2
144 242
111 303 532
39 119 142 189
332 401
67 284 355

409 7
20 15 10 7 3
0 16 23 8 13
1 22 18 12 9
6 17 11 2 24
5 21 19 14 4
